NAME : gr120.9012.tour
COMMENT : Cost = 1809_9012
COMMENT : Found by LKH [Keld Helsgaun] Thu Nov 16 17:27:03 2017
TYPE : TOUR
DIMENSION : 124
TOUR_SECTION
1
61
105
74
87
56
41
42
98
17
118
49
13
65
69
113
107
20
46
50
44
75
14
86
45
28
120
124
40
72
7
38
23
51
11
115
21
109
88
64
93
2
82
9
103
119
34
70
116
123
24
54
47
48
102
101
80
27
5
63
39
12
97
95
77
53
3
4
26
121
111
96
90
55
6
84
36
104
35
10
99
62
37
67
83
57
73
114
106
112
110
89
71
8
60
16
122
29
30
32
92
78
94
22
85
18
108
43
68
91
58
79
100
33
52
25
19
117
31
66
81
15
59
76
-1
EOF
